c This is a random SAT instance with 10 variables and 20 clauses
p cnf 10 20
6 0
-5 0
10 0
-4 -9 4 -2 0
10 2 -2 -8 0
6 9 -3 -5 -10 -6 -7 0
-7 8 7 2 1 6 5 -9 0
1 9 0
-6 -2 9 5 -5 -7 -10 2 4 0
-8 0
-7 -3 9 -1 5 0
-6 6 10 4 -5 -3 -9 0
6 3 -5 1 5 -2 -9 4 -8 0
-1 3 8 -7 -5 6 0
8 0
-10 5 -2 4 1 0
-1 -7 1 2 -9 10 6 -6 5 0
6 4 8 -6 9 0
-3 7 0
-2 -10 0